Optimal - objective value 5.53333200
      0 r_0                         0                0.966667
      1 r_1                         0                0.966667
      2 r_2                         0                0.966667
      3 r_3                         0                0.966667
      4 r_4                         0                0.933333
      5 r_5                         1                0.933333
      6 r_6                         0                0.933333
      7 r_7                         0                0.933333
      8 r_8                         0                0.933333
      9 r_9                         0                0.933333
     10 r_10                        1                0.933333
     11 r_11                        0                0.933333
     12 r_12                        1                     0.9
     13 r_13                        0                     0.9
     14 r_14                        0                     0.9
     15 r_15                        0                     0.9
     16 b_0                         0                0.966667
     17 b_1                         0                0.966667
     18 b_2                         0                0.966667
     19 b_3                         0                0.966667
     20 b_4                         0                0.933333
     21 b_5                         0                0.933333
     22 b_6                         0                0.933333
     23 b_7                         1                0.933333
     24 b_8                         1                0.933333
     25 b_9                         0                0.933333
     26 b_10                        0                0.933333
     27 b_11                        0                0.933333
     28 b_12                        0                     0.9
     29 b_13                        0                     0.9
     30 b_14                        0                     0.9
     31 b_15                        1                     0.9
